set VV := 0 1 2 3 4 5 6 7 8 9 10 11 12 13 14 15 16 17 18 19 20 21 22 23 24 25 26 27 28 29 30 31 32 33 34 35 36 37 38 39 ;
set VS := 0 1 2 3 4 5 6 7 8 9 10 11 12 13 14 15 16 17 18 19 20 21 22 23 24 25 26 27 28 29 30 31 32 33 34 35 36 37 38 39 40 41 42 43 44 45 46 47 48 49 50 51 52 53 54 55 56 57 58 59 60 61 62 63 64 65 66 67 68 69 70 71 72 73 74 75 76 77 78 79 80 81 82 83 ;
param cv := 
0 13
1 22
2 24
3 15
4 11
5 20
6 19
7 18
8 15
9 11
10 11
11 19
12 22
13 20
14 24
15 23
16 11
17 14
18 16
19 14
20 22
21 15
22 18
23 20
24 12
25 18
26 16
27 14
28 13
29 16
30 17
31 15
32 15
33 20
34 12
35 14
36 15
37 17
38 25
39 15
;
param cs := 
0 35
1 25
2 25
3 34
4 22
5 40
6 33
7 38
8 33
9 37
10 24
11 33
12 33
13 23
14 21
15 34
16 21
17 26
18 29
19 25
20 35
21 34
22 34
23 38
24 30
25 21
26 37
27 30
28 27
29 21
30 21
31 38
32 27
33 36
34 24
35 33
36 25
37 37
38 36
39 20
40 20
41 36
42 37
43 29
44 21
45 20
46 21
47 21
48 20
49 22
50 36
51 20
52 26
53 25
54 24
55 21
56 21
57 24
58 24
59 28
60 24
61 30
62 35
63 30
64 35
65 20
66 34
67 36
68 36
69 29
70 26
71 40
72 36
73 20
74 33
75 25
76 29
77 30
78 24
79 25
80 31
81 20
82 26
83 20
;
param bv:	 0 1 2 3 4 5 6 7 8 9 10 11 12 13 14 15 16 17 18 19 20 21 22 23 24 25 26 27 28 29 30 31 32 33 34 35 36 37 38 39 := 
		0 0 0 0 0 0 13 13 0 11 0 0 0 0 0 0 0 0 0 0 0 0 20 21 12 0 0 16 0 0 0 0 0 0 24 0 0 24 0 0 0 
		1 0 0 0 17 0 0 22 0 0 19 0 0 0 0 0 0 0 0 23 0 0 23 0 25 15 0 0 0 0 0 21 0 0 15 0 0 0 15 0 0 
		2 0 0 0 0 0 0 0 0 0 0 10 0 0 0 0 0 23 0 22 0 0 0 0 0 0 0 0 22 0 0 0 0 0 0 0 0 24 0 0 0 
		3 0 0 0 0 0 0 0 24 0 15 0 0 0 0 0 22 0 0 0 12 0 0 0 0 10 0 0 0 0 0 21 0 0 0 0 0 0 0 23 0 
		4 0 0 0 0 0 0 0 10 0 0 0 0 0 0 0 0 0 0 0 16 15 0 0 0 0 0 0 0 13 0 0 0 0 0 0 0 0 0 0 0 
		5 0 0 0 0 0 0 0 0 0 12 0 0 15 0 0 0 0 0 0 0 0 0 0 16 0 0 0 0 0 0 0 0 0 0 0 0 0 0 0 22 
		6 0 0 0 0 0 0 0 0 13 0 0 0 0 24 0 18 0 0 0 0 0 0 0 0 0 0 0 0 0 0 0 0 14 0 0 0 0 0 0 0 
		7 0 0 0 0 0 0 0 0 0 0 0 0 0 0 0 15 0 0 0 0 0 0 0 0 0 0 0 0 0 0 0 0 0 0 0 10 0 0 0 0 
		8 0 0 0 0 0 0 0 0 0 0 0 0 0 0 0 0 0 0 0 18 0 0 0 0 0 0 0 0 0 24 0 0 0 0 0 0 0 0 0 0 
		9 0 0 0 0 0 0 0 0 0 0 12 0 0 0 0 0 24 0 0 0 0 20 0 0 0 0 0 0 0 0 0 13 0 0 0 0 0 21 0 0 
		10 0 0 0 0 0 0 0 0 0 0 0 0 0 0 0 0 0 0 0 16 0 0 10 0 0 0 0 0 0 0 0 0 0 0 0 0 0 18 0 0 
		11 0 0 0 0 0 0 0 0 0 0 0 0 0 0 22 0 0 0 0 0 0 0 0 0 0 18 0 0 0 0 0 0 0 0 0 0 0 0 16 21 
		12 0 0 0 0 0 0 0 0 0 0 0 0 0 0 0 0 0 0 0 0 0 18 0 0 0 0 0 18 0 0 0 0 11 0 0 0 0 0 0 0 
		13 0 0 0 0 0 0 0 0 0 0 0 0 0 0 0 13 0 0 0 10 0 0 0 0 0 0 0 0 0 0 20 0 0 21 0 0 23 0 0 0 
		14 0 0 0 0 0 0 0 0 0 0 0 0 0 0 0 0 0 0 0 19 0 0 0 0 0 0 0 0 0 0 0 0 0 0 0 24 0 0 0 0 
		15 0 0 0 0 0 0 0 0 0 0 0 0 0 0 0 0 0 0 0 20 0 0 0 0 0 0 0 0 0 0 0 0 0 0 0 0 0 0 0 0 
		16 0 0 0 0 0 0 0 0 0 0 0 0 0 0 0 0 0 0 11 0 0 0 24 0 0 0 0 0 0 0 0 0 0 0 0 0 0 0 0 0 
		17 0 0 0 0 0 0 0 0 0 0 0 0 0 0 0 0 0 0 0 0 0 0 0 0 16 0 0 0 0 0 0 0 0 0 0 0 0 0 0 0 
		18 0 0 0 0 0 0 0 0 0 0 0 0 0 0 0 0 0 0 0 0 0 0 0 0 0 0 0 0 0 0 0 0 0 0 0 0 0 22 0 0 
		19 0 0 0 0 0 0 0 0 0 0 0 0 0 0 0 0 0 0 0 0 0 0 0 21 0 22 17 0 0 0 0 0 0 0 0 0 0 0 0 0 
		20 0 0 0 0 0 0 0 0 0 0 0 0 0 0 0 0 0 0 0 0 0 0 0 0 0 25 16 0 0 0 0 19 0 0 0 0 0 0 0 0 
		21 0 0 0 0 0 0 0 0 0 0 0 0 0 0 0 0 0 0 0 0 0 0 0 0 0 0 0 0 0 0 0 0 0 0 0 0 0 0 0 0 
		22 0 0 0 0 0 0 0 0 0 0 0 0 0 0 0 0 0 0 0 0 0 0 0 0 0 0 0 0 0 0 0 0 0 0 0 0 0 0 0 0 
		23 0 0 0 0 0 0 0 0 0 0 0 0 0 0 0 0 0 0 0 0 0 0 0 0 0 0 0 0 0 0 0 0 0 0 0 0 0 22 0 0 
		24 0 0 0 0 0 0 0 0 0 0 0 0 0 0 0 0 0 0 0 0 0 0 0 0 0 0 0 0 0 0 0 0 0 0 0 0 0 0 13 0 
		25 0 0 0 0 0 0 0 0 0 0 0 0 0 0 0 0 0 0 0 0 0 0 0 0 0 0 20 24 0 0 0 0 11 0 0 0 0 0 0 0 
		26 0 0 0 0 0 0 0 0 0 0 0 0 0 0 0 0 0 0 0 0 0 0 0 0 0 0 0 0 0 0 0 0 17 0 0 0 0 0 0 0 
		27 0 0 0 0 0 0 0 0 0 0 0 0 0 0 0 0 0 0 0 0 0 0 0 0 0 0 0 0 0 0 0 0 0 0 0 0 0 0 0 18 
		28 0 0 0 0 0 0 0 0 0 0 0 0 0 0 0 0 0 0 0 0 0 0 0 0 0 0 0 0 0 0 0 0 0 0 0 0 0 0 0 0 
		29 0 0 0 0 0 0 0 0 0 0 0 0 0 0 0 0 0 0 0 0 0 0 0 0 0 0 0 0 0 0 0 0 0 0 0 0 0 0 0 15 
		30 0 0 0 0 0 0 0 0 0 0 0 0 0 0 0 0 0 0 0 0 0 0 0 0 0 0 0 0 0 0 0 0 0 0 0 0 0 14 11 11 
		31 0 0 0 0 0 0 0 0 0 0 0 0 0 0 0 0 0 0 0 0 0 0 0 0 0 0 0 0 0 0 0 0 0 11 0 0 0 0 0 0 
		32 0 0 0 0 0 0 0 0 0 0 0 0 0 0 0 0 0 0 0 0 0 0 0 0 0 0 0 0 0 0 0 0 0 0 0 0 0 0 0 0 
		33 0 0 0 0 0 0 0 0 0 0 0 0 0 0 0 0 0 0 0 0 0 0 0 0 0 0 0 0 0 0 0 0 0 0 0 0 0 0 0 16 
		34 0 0 0 0 0 0 0 0 0 0 0 0 0 0 0 0 0 0 0 0 0 0 0 0 0 0 0 0 0 0 0 0 0 0 0 0 0 0 15 0 
		35 0 0 0 0 0 0 0 0 0 0 0 0 0 0 0 0 0 0 0 0 0 0 0 0 0 0 0 0 0 0 0 0 0 0 0 0 19 0 0 0 
		36 0 0 0 0 0 0 0 0 0 0 0 0 0 0 0 0 0 0 0 0 0 0 0 0 0 0 0 0 0 0 0 0 0 0 0 0 0 0 0 0 
		37 0 0 0 0 0 0 0 0 0 0 0 0 0 0 0 0 0 0 0 0 0 0 0 0 0 0 0 0 0 0 0 0 0 0 0 0 0 0 0 0 
		38 0 0 0 0 0 0 0 0 0 0 0 0 0 0 0 0 0 0 0 0 0 0 0 0 0 0 0 0 0 0 0 0 0 0 0 0 0 0 0 0 
		39 0 0 0 0 0 0 0 0 0 0 0 0 0 0 0 0 0 0 0 0 0 0 0 0 0 0 0 0 0 0 0 0 0 0 0 0 0 0 0 0 
;
param bs:	 0 1 2 3 4 5 6 7 8 9 10 11 12 13 14 15 16 17 18 19 20 21 22 23 24 25 26 27 28 29 30 31 32 33 34 35 36 37 38 39 40 41 42 43 44 45 46 47 48 49 50 51 52 53 54 55 56 57 58 59 60 61 62 63 64 65 66 67 68 69 70 71 72 73 74 75 76 77 78 79 80 81 82 83 := 
		0 0 0 32 0 0 0 0 0 0 0 0 0 39 0 0 0 0 0 0 0 35 0 0 0 0 0 40 0 0 0 0 0 0 0 0 0 32 0 0 0 0 0 34 0 0 0 0 33 0 32 0 0 0 0 0 24 0 34 37 36 0 0 0 0 0 0 0 0 0 0 26 29 0 0 0 35 0 0 0 0 0 0 0 0 
		1 0 0 27 0 0 0 0 0 0 0 31 0 0 0 0 0 0 0 0 0 0 0 0 0 0 0 0 0 0 0 0 0 0 0 0 0 0 0 0 0 30 0 0 0 0 0 0 0 0 0 0 0 0 0 0 0 0 0 29 0 0 0 0 0 0 0 0 0 0 0 0 0 0 0 0 0 33 0 37 0 0 0 0 0 
		2 32 27 0 0 0 0 0 0 0 0 0 0 0 0 0 36 0 0 0 0 0 35 0 0 0 0 0 0 0 0 0 0 0 0 0 0 0 0 0 0 0 0 34 0 0 0 33 0 0 0 0 0 0 0 0 0 0 0 0 0 0 0 0 0 0 0 0 0 0 0 0 0 0 0 24 0 0 0 0 0 0 0 0 0 
		3 0 0 0 0 0 0 0 0 0 0 0 0 0 0 33 0 0 0 0 0 0 0 28 23 0 0 0 0 0 0 0 0 0 0 0 37 37 0 0 0 0 0 20 0 0 0 0 0 0 0 0 0 0 0 0 0 0 0 0 0 39 0 0 0 0 0 0 0 0 0 0 0 0 0 0 0 0 0 0 0 0 38 0 0 
		4 0 0 0 0 0 0 0 0 0 0 21 0 0 26 0 0 0 0 0 0 0 0 0 0 0 0 0 0 0 0 0 0 0 0 0 0 0 0 0 0 0 0 0 0 0 0 0 0 0 0 0 0 0 37 0 0 0 0 0 0 0 0 0 0 0 0 0 0 33 24 0 0 0 20 0 0 0 0 36 0 0 0 0 35 
		5 0 0 0 0 0 0 0 0 0 0 0 0 0 0 0 0 0 0 0 37 0 0 0 0 0 0 0 0 0 0 0 0 0 0 0 0 0 0 0 0 0 0 0 20 0 0 0 0 0 0 0 0 0 0 0 0 0 0 0 0 0 0 0 0 27 0 0 0 0 0 0 26 0 0 0 31 0 0 0 0 0 0 0 0 
		6 0 0 0 0 0 0 0 0 0 0 0 0 0 0 0 0 0 23 0 0 0 0 0 0 0 0 0 0 0 0 0 0 0 0 0 0 0 0 0 27 0 0 0 28 0 0 0 0 0 0 0 21 0 0 0 0 0 0 0 0 0 0 0 33 0 0 0 0 0 0 0 0 0 0 0 0 0 0 0 0 0 0 0 0 
		7 0 0 0 0 0 0 0 0 0 0 0 0 31 0 0 0 0 26 0 21 0 0 0 0 0 31 0 0 0 0 0 0 0 0 0 0 0 0 0 0 0 0 0 0 0 0 0 0 0 0 0 0 0 0 0 0 0 0 0 0 0 0 0 0 0 0 0 0 0 22 37 0 0 0 0 23 0 0 0 0 0 0 0 0 
		8 0 0 0 0 0 0 0 0 0 0 0 0 0 0 0 26 0 0 0 0 0 0 0 0 0 0 0 0 0 0 0 0 0 0 32 0 35 0 0 0 0 0 0 0 0 39 0 0 0 0 0 0 33 23 0 0 29 28 0 0 0 0 0 0 22 0 0 0 0 0 22 0 0 0 0 0 0 0 0 0 0 0 0 0 
		9 0 0 0 0 0 0 0 0 0 0 0 0 0 0 0 0 0 0 0 0 0 0 0 0 0 34 35 0 0 0 20 0 0 0 0 0 0 0 0 0 0 21 0 0 0 0 0 0 0 0 0 0 0 0 0 0 0 0 29 0 0 0 0 0 0 35 0 0 0 0 0 0 0 0 21 30 0 0 0 0 0 0 0 0 
		10 0 31 0 0 21 0 0 0 0 0 0 0 0 0 0 0 0 0 0 39 0 0 0 0 0 0 0 0 0 0 24 0 0 0 0 0 0 0 0 0 30 0 0 0 0 0 0 0 0 0 0 37 0 0 0 0 33 0 0 0 0 0 0 0 0 0 26 0 0 0 35 25 0 0 36 0 22 0 0 0 25 0 0 0 
		11 0 0 0 0 0 0 0 0 0 0 0 0 0 0 0 0 0 0 0 0 30 37 0 0 0 0 28 0 0 0 0 0 0 0 0 0 0 0 0 0 0 0 0 0 0 0 0 0 0 25 0 0 0 0 0 0 28 0 0 0 0 0 0 0 0 0 0 0 0 0 0 0 0 32 31 0 0 33 35 0 0 0 0 0 
		12 39 0 0 0 0 0 0 31 0 0 0 0 0 0 0 0 0 0 0 0 0 0 0 0 0 0 0 0 0 0 0 0 0 0 0 0 0 0 0 0 0 0 0 0 0 0 0 0 0 20 0 0 20 0 0 0 0 0 0 0 0 0 0 0 0 0 0 0 0 0 0 0 0 24 0 0 0 0 0 0 0 0 0 0 
		13 0 0 0 0 26 0 0 0 0 0 0 0 0 0 0 0 0 0 0 0 0 0 0 0 0 0 0 0 0 0 0 0 0 0 0 0 0 0 0 26 0 0 0 0 0 0 0 0 0 0 40 0 0 0 0 0 0 0 0 0 0 0 33 0 0 0 0 0 0 0 0 22 0 0 20 0 0 0 0 34 0 38 0 25 
		14 0 0 0 33 0 0 0 0 0 0 0 0 0 0 0 0 23 0 0 0 0 0 0 0 0 0 0 0 0 0 0 0 0 0 0 0 0 0 0 0 0 0 0 0 0 0 0 0 0 0 27 0 0 0 0 0 0 0 0 0 0 0 0 0 0 0 0 0 0 0 0 0 0 0 0 0 0 0 0 0 0 0 0 0 
		15 0 0 36 0 0 0 0 0 26 0 0 0 0 0 0 0 0 0 0 0 0 0 0 0 0 0 0 0 0 0 0 0 0 37 0 0 33 0 25 0 0 0 0 0 0 0 0 0 0 0 0 0 0 0 0 0 0 0 0 0 0 0 0 0 0 0 0 0 0 0 38 0 0 0 0 36 0 0 0 0 0 0 0 0 
		16 0 0 0 0 0 0 0 0 0 0 0 0 0 0 23 0 0 0 0 0 0 0 0 39 0 0 0 0 0 0 0 0 0 0 0 0 0 0 0 0 0 0 0 37 0 0 0 0 0 0 0 0 0 0 0 0 0 0 0 0 0 0 0 0 0 0 0 0 0 0 0 0 0 0 0 0 0 0 0 0 20 0 0 0 
		17 0 0 0 0 0 0 23 26 0 0 0 0 0 0 0 0 0 0 0 0 0 0 0 34 0 0 30 0 0 0 0 0 0 0 0 0 0 0 0 0 0 0 0 0 0 0 0 0 0 21 0 0 0 0 33 0 0 0 0 0 0 0 0 0 0 0 31 0 0 0 29 38 32 0 0 0 30 0 0 0 0 0 0 0 
		18 0 0 0 0 0 0 0 0 0 0 0 0 0 0 0 0 0 0 0 0 0 37 0 0 0 0 0 0 0 0 0 0 0 0 0 31 0 0 0 0 0 0 0 0 0 0 0 0 0 0 0 0 40 0 0 0 0 0 0 0 0 0 0 25 0 0 0 0 0 0 0 0 0 0 0 0 0 0 0 0 0 0 26 0 
		19 0 0 0 0 0 37 0 21 0 0 39 0 0 0 0 0 0 0 0 0 0 0 32 0 0 29 0 0 0 0 24 0 0 0 0 0 0 0 0 0 0 0 0 0 0 0 0 0 0 0 30 35 0 0 0 0 0 0 0 0 0 0 35 0 0 0 0 0 33 0 0 23 0 0 0 0 0 0 29 27 0 0 0 0 
		20 35 0 0 0 0 0 0 0 0 0 0 30 0 0 0 0 0 0 0 0 0 0 0 0 0 0 0 0 0 0 0 0 0 0 0 23 0 0 0 0 0 26 0 0 0 0 34 0 0 27 0 0 0 0 0 0 0 0 0 0 0 0 0 0 0 0 0 32 0 0 0 0 0 0 0 0 0 27 0 0 0 0 0 0 
		21 0 0 35 0 0 0 0 0 0 0 0 37 0 0 0 0 0 0 37 0 0 0 0 0 31 0 0 0 0 0 0 0 0 37 38 0 0 0 0 0 0 0 0 0 0 0 0 0 0 0 0 0 0 0 0 0 0 0 0 0 0 0 0 0 0 0 0 0 0 0 34 0 0 0 0 0 0 0 0 0 0 0 0 0 
		22 0 0 0 28 0 0 0 0 0 0 0 0 0 0 0 0 0 0 0 32 0 0 0 0 0 26 0 0 0 0 0 0 0 0 0 0 0 0 39 0 0 0 0 0 0 0 34 0 0 0 0 0 0 0 0 0 0 0 0 0 0 0 0 25 0 0 0 0 34 0 0 0 0 0 0 23 0 0 0 0 0 0 0 0 
		23 0 0 0 23 0 0 0 0 0 0 0 0 0 0 0 0 39 34 0 0 0 0 0 0 0 0 0 0 0 38 0 0 0 0 36 35 0 0 0 0 0 0 0 20 0 23 0 0 0 0 0 0 0 0 0 39 0 0 0 0 0 0 0 38 0 0 0 0 0 0 38 33 23 0 0 0 0 0 0 0 0 0 0 0 
		24 0 0 0 0 0 0 0 0 0 0 0 0 0 0 0 0 0 0 0 0 0 31 0 0 0 0 0 35 39 0 0 0 0 0 0 0 0 0 0 0 25 0 0 0 0 0 0 40 0 0 22 0 0 0 0 27 0 0 0 0 0 0 0 23 0 0 0 0 0 0 0 0 37 0 0 0 0 0 0 0 31 0 31 0 
		25 0 0 0 0 0 0 0 31 0 34 0 0 0 0 0 0 0 0 0 29 0 0 26 0 0 0 0 0 0 0 0 0 0 0 0 0 28 0 0 0 0 0 35 0 0 0 24 0 0 23 0 0 0 0 0 30 0 0 0 0 40 31 0 0 0 33 0 21 0 0 0 31 0 0 0 32 0 0 0 0 0 35 0 0 
		26 40 0 0 0 0 0 0 0 0 35 0 28 0 0 0 0 0 30 0 0 0 0 0 0 0 0 0 0 0 0 0 0 0 0 39 0 25 21 0 0 0 0 0 0 0 0 0 0 0 0 33 0 0 0 0 0 0 26 0 30 0 39 0 0 0 0 0 40 0 0 0 0 0 0 0 0 0 0 0 0 0 35 0 0 
		27 0 0 0 0 0 0 0 0 0 0 0 0 0 0 0 0 0 0 0 0 0 0 0 0 35 0 0 0 0 0 0 0 0 31 0 0 0 0 0 23 0 0 0 0 0 0 32 22 0 0 0 0 39 0 0 28 0 0 0 0 0 0 0 0 0 0 0 0 0 0 0 0 0 0 0 0 0 0 33 0 0 0 0 0 
		28 0 0 0 0 0 0 0 0 0 0 0 0 0 0 0 0 0 0 0 0 0 0 0 0 39 0 0 0 0 0 0 0 0 0 0 0 0 0 0 28 0 0 0 0 0 0 0 0 0 0 0 0 35 31 0 0 0 0 0 0 0 0 0 0 0 0 24 0 0 0 0 0 0 0 0 0 0 0 0 30 0 23 0 0 
		29 0 0 0 0 0 0 0 0 0 0 0 0 0 0 0 0 0 0 0 0 0 0 0 38 0 0 0 0 0 0 0 0 0 0 29 0 0 0 0 0 0 0 0 0 0 0 0 0 0 0 0 0 0 0 0 0 36 0 0 0 0 0 0 0 0 0 0 0 0 30 0 0 0 36 0 33 0 0 0 21 0 0 25 0 
		30 0 0 0 0 0 0 0 0 0 20 24 0 0 0 0 0 0 0 0 24 0 0 0 0 0 0 0 0 0 0 0 29 0 0 0 0 0 0 0 0 37 0 0 0 0 0 0 0 0 34 0 0 0 0 0 0 0 0 0 0 0 0 0 0 0 0 0 0 0 0 0 0 0 0 0 0 0 0 0 0 0 0 0 27 
		31 0 0 0 0 0 0 0 0 0 0 0 0 0 0 0 0 0 0 0 0 0 0 0 0 0 0 0 0 0 0 29 0 0 0 0 0 0 0 23 0 24 0 0 0 27 0 0 0 0 0 0 0 0 0 0 0 0 0 0 0 0 0 0 0 0 0 0 0 0 0 0 0 0 0 0 0 0 0 0 0 0 0 0 0 
		32 0 0 0 0 0 0 0 0 0 0 0 0 0 0 0 0 0 0 0 0 0 0 0 0 0 0 0 0 0 0 0 0 0 0 0 26 36 38 0 0 0 0 0 0 0 0 0 21 0 0 0 0 0 0 0 0 0 0 0 0 0 0 0 0 27 0 0 0 0 0 26 0 0 0 0 0 0 0 0 0 0 0 0 0 
		33 0 0 0 0 0 0 0 0 0 0 0 0 0 0 0 37 0 0 0 0 0 37 0 0 0 0 0 31 0 0 0 0 0 0 0 0 0 0 0 0 0 0 0 0 0 0 0 0 0 0 0 0 0 0 0 0 0 0 0 0 24 0 0 0 0 0 0 0 0 0 0 0 0 0 0 38 0 34 0 0 0 0 0 37 
		34 0 0 0 0 0 0 0 0 32 0 0 0 0 0 0 0 0 0 0 0 0 38 0 36 0 0 39 0 0 29 0 0 0 0 0 0 0 0 0 0 0 0 0 0 0 0 0 0 0 0 24 0 0 0 0 0 0 0 0 0 0 0 0 30 0 0 0 0 0 0 32 0 0 26 0 0 0 0 27 0 0 0 0 0 
		35 0 0 0 37 0 0 0 0 0 0 0 0 0 0 0 0 0 0 31 0 23 0 0 35 0 0 0 0 0 0 0 0 26 0 0 0 0 0 22 0 0 0 0 0 0 0 0 0 0 0 0 0 0 0 0 0 0 0 0 0 0 0 0 32 0 0 0 0 0 0 0 0 0 0 0 0 40 0 0 0 0 0 0 0 
		36 32 0 0 37 0 0 0 0 35 0 0 0 0 0 0 33 0 0 0 0 0 0 0 0 0 28 25 0 0 0 0 0 36 0 0 0 0 0 0 0 0 0 0 0 0 0 0 0 0 0 0 0 0 26 0 0 27 0 0 0 37 0 0 0 0 0 0 0 0 0 0 0 0 0 0 23 0 0 0 0 0 0 0 0 
		37 0 0 0 0 0 0 0 0 0 0 0 0 0 0 0 0 0 0 0 0 0 0 0 0 0 0 21 0 0 0 0 0 38 0 0 0 0 0 0 0 0 0 0 0 0 0 0 0 0 0 0 0 0 0 0 0 23 0 0 0 0 0 0 0 0 0 0 0 0 0 0 0 40 0 0 37 0 0 0 0 0 0 0 0 
		38 0 0 0 0 0 0 0 0 0 0 0 0 0 0 0 25 0 0 0 0 0 0 39 0 0 0 0 0 0 0 0 23 0 0 0 22 0 0 0 0 0 0 0 0 0 20 0 0 0 21 0 0 0 0 0 0 0 0 0 26 0 0 0 0 0 0 0 0 0 0 0 0 0 38 0 0 0 0 0 0 0 0 0 0 
		39 0 0 0 0 0 0 27 0 0 0 0 0 0 26 0 0 0 0 0 0 0 0 0 0 0 0 0 23 28 0 0 0 0 0 0 0 0 0 0 0 0 0 0 0 0 0 0 0 0 0 0 0 0 0 0 0 0 0 0 0 0 0 0 0 29 0 40 0 0 0 0 0 0 0 0 0 0 0 0 0 0 0 0 0 
		40 0 30 0 0 0 0 0 0 0 0 30 0 0 0 0 0 0 0 0 0 0 0 0 0 25 0 0 0 0 0 37 24 0 0 0 0 0 0 0 0 0 0 0 0 0 0 0 0 0 0 0 0 0 0 0 31 0 0 0 0 0 29 0 0 0 0 0 0 0 0 0 0 0 36 0 0 0 0 0 0 0 0 0 0 
		41 0 0 0 0 0 0 0 0 0 21 0 0 0 0 0 0 0 0 0 0 26 0 0 0 0 0 0 0 0 0 0 0 0 0 0 0 0 0 0 0 0 0 0 0 36 0 0 0 28 0 0 0 0 0 0 0 0 0 0 0 0 0 0 35 0 37 0 0 0 0 0 0 0 0 0 0 0 0 0 0 0 0 0 0 
		42 34 0 34 20 0 0 0 0 0 0 0 0 0 0 0 0 0 0 0 0 0 0 0 0 0 35 0 0 0 0 0 0 0 0 0 0 0 0 0 0 0 0 0 0 0 32 29 0 0 0 0 0 0 0 0 0 0 0 0 0 0 0 0 0 37 0 0 0 35 0 0 0 0 0 0 0 0 0 0 0 0 0 0 0 
		43 0 0 0 0 0 20 28 0 0 0 0 0 0 0 0 0 37 0 0 0 0 0 0 20 0 0 0 0 0 0 0 0 0 0 0 0 0 0 0 0 0 0 0 0 0 0 0 0 0 0 0 0 0 0 31 0 0 0 0 0 0 0 0 20 0 0 36 0 0 0 0 0 0 0 0 0 0 0 0 0 25 0 0 22 
		44 0 0 0 0 0 0 0 0 0 0 0 0 0 0 0 0 0 0 0 0 0 0 0 0 0 0 0 0 0 0 0 27 0 0 0 0 0 0 0 0 0 36 0 0 0 0 0 40 0 0 29 0 0 0 0 0 33 0 0 0 0 0 0 20 0 0 0 0 39 0 33 25 0 0 0 0 0 0 0 0 0 0 0 0 
		45 0 0 0 0 0 0 0 0 39 0 0 0 0 0 0 0 0 0 0 0 0 0 0 23 0 0 0 0 0 0 0 0 0 0 0 0 0 0 20 0 0 0 32 0 0 0 0 0 0 25 0 0 0 31 0 0 0 0 0 0 0 0 0 24 0 0 35 0 0 0 0 0 0 0 0 0 0 0 0 0 0 0 0 0 
		46 0 0 33 0 0 0 0 0 0 0 0 0 0 0 0 0 0 0 0 0 34 0 34 0 0 24 0 32 0 0 0 0 0 0 0 0 0 0 0 0 0 0 29 0 0 0 0 0 0 0 0 0 0 0 0 0 0 0 0 0 0 0 0 0 0 25 0 0 0 0 22 0 0 0 39 0 0 31 0 0 0 21 0 0 
		47 33 0 0 0 0 0 0 0 0 0 0 0 0 0 0 0 0 0 0 0 0 0 0 0 40 0 0 22 0 0 0 0 21 0 0 0 0 0 0 0 0 0 0 0 40 0 0 0 0 0 0 0 0 0 0 0 0 0 0 0 0 0 0 0 0 0 0 0 39 20 0 39 0 0 0 0 0 0 0 0 0 0 0 32 
		48 0 0 0 0 0 0 0 0 0 0 0 0 0 0 0 0 0 0 0 0 0 0 0 0 0 0 0 0 0 0 0 0 0 0 0 0 0 0 0 0 0 28 0 0 0 0 0 0 0 40 0 0 0 0 0 0 0 0 0 0 0 0 0 0 0 0 0 0 0 0 0 0 0 0 0 0 0 34 0 0 0 0 0 0 
		49 32 0 0 0 0 0 0 0 0 0 0 25 20 0 0 0 0 21 0 0 27 0 0 0 0 23 0 0 0 0 34 0 0 0 0 0 0 0 21 0 0 0 0 0 0 25 0 0 40 0 0 0 0 0 0 0 0 0 0 0 27 0 0 0 30 0 0 0 0 0 0 0 0 0 0 0 0 37 0 0 0 0 0 0 
		50 0 0 0 0 0 0 0 0 0 0 0 0 0 40 27 0 0 0 0 30 0 0 0 0 22 0 33 0 0 0 0 0 0 0 24 0 0 0 0 0 0 0 0 0 29 0 0 0 0 0 0 0 0 0 0 0 31 0 0 0 0 0 0 0 0 0 0 0 26 0 0 0 0 37 0 0 25 0 39 32 0 0 0 0 
		51 0 0 0 0 0 0 21 0 0 0 37 0 0 0 0 0 0 0 0 35 0 0 0 0 0 0 0 0 0 0 0 0 0 0 0 0 0 0 0 0 0 0 0 0 0 0 0 0 0 0 0 0 0 0 0 0 40 0 33 26 0 0 0 0 0 0 0 0 0 29 0 0 0 0 0 0 0 0 25 22 0 31 0 0 
		52 0 0 0 0 0 0 0 0 33 0 0 0 20 0 0 0 0 0 40 0 0 0 0 0 0 0 0 39 35 0 0 0 0 0 0 0 0 0 0 0 0 0 0 0 0 0 0 0 0 0 0 0 0 0 0 0 0 0 0 0 0 37 0 0 0 0 0 0 0 0 0 0 0 0 0 0 0 0 0 0 39 35 0 36 
		53 0 0 0 0 37 0 0 0 23 0 0 0 0 0 0 0 0 0 0 0 0 0 0 0 0 0 0 0 31 0 0 0 0 0 0 0 26 0 0 0 0 0 0 0 0 31 0 0 0 0 0 0 0 0 0 0 0 0 0 0 0 0 0 0 0 0 0 0 0 0 0 0 0 0 0 0 0 0 24 0 0 22 0 0 
		54 0 0 0 0 0 0 0 0 0 0 0 0 0 0 0 0 0 33 0 0 0 0 0 0 0 0 0 0 0 0 0 0 0 0 0 0 0 0 0 0 0 0 0 31 0 0 0 0 0 0 0 0 0 0 0 0 0 0 0 24 0 0 0 0 0 0 25 0 0 0 0 0 0 0 0 0 0 0 0 0 0 0 0 0 
		55 24 0 0 0 0 0 0 0 0 0 0 0 0 0 0 0 0 0 0 0 0 0 0 39 27 30 0 28 0 0 0 0 0 0 0 0 0 0 0 0 31 0 0 0 0 0 0 0 0 0 0 0 0 0 0 0 24 0 0 0 0 0 0 0 0 28 20 25 0 0 29 0 0 0 39 0 0 0 0 0 29 34 0 0 
		56 0 0 0 0 0 0 0 0 29 0 33 28 0 0 0 0 0 0 0 0 0 0 0 0 0 0 0 0 0 36 0 0 0 0 0 0 27 23 0 0 0 0 0 0 33 0 0 0 0 0 31 40 0 0 0 24 0 0 0 0 0 0 0 0 0 0 0 0 39 0 0 0 0 0 0 0 0 0 0 0 0 0 0 0 
		57 34 0 0 0 0 0 0 0 28 0 0 0 0 0 0 0 0 0 0 0 0 0 0 0 0 0 26 0 0 0 0 0 0 0 0 0 0 0 0 0 0 0 0 0 0 0 0 0 0 0 0 0 0 0 0 0 0 0 0 0 0 0 0 0 0 0 0 0 0 39 0 0 36 0 24 36 0 0 0 0 0 0 0 0 
		58 37 29 0 0 0 0 0 0 0 29 0 0 0 0 0 0 0 0 0 0 0 0 0 0 0 0 0 0 0 0 0 0 0 0 0 0 0 0 0 0 0 0 0 0 0 0 0 0 0 0 0 33 0 0 0 0 0 0 0 0 0 0 0 0 0 0 0 0 0 0 0 0 0 0 0 0 0 0 0 0 0 0 0 24 
		59 36 0 0 0 0 0 0 0 0 0 0 0 0 0 0 0 0 0 0 0 0 0 0 0 0 0 30 0 0 0 0 0 0 0 0 0 0 0 26 0 0 0 0 0 0 0 0 0 0 0 0 26 0 0 24 0 0 0 0 0 0 0 0 0 0 0 0 29 30 37 0 0 32 0 20 0 0 0 0 0 0 0 0 20 
		60 0 0 0 39 0 0 0 0 0 0 0 0 0 0 0 0 0 0 0 0 0 0 0 0 0 40 0 0 0 0 0 0 0 24 0 0 37 0 0 0 0 0 0 0 0 0 0 0 0 27 0 0 0 0 0 0 0 0 0 0 0 0 0 0 0 0 0 0 0 0 0 29 0 0 0 0 0 0 0 0 0 0 0 0 
		61 0 0 0 0 0 0 0 0 0 0 0 0 0 0 0 0 0 0 0 0 0 0 0 0 0 31 39 0 0 0 0 0 0 0 0 0 0 0 0 0 29 0 0 0 0 0 0 0 0 0 0 0 37 0 0 0 0 0 0 0 0 0 0 0 0 0 0 22 0 0 0 0 0 0 0 0 0 0 0 0 0 0 0 0 
		62 0 0 0 0 0 0 0 0 0 0 0 0 0 33 0 0 0 0 0 35 0 0 0 0 0 0 0 0 0 0 0 0 0 0 0 0 0 0 0 0 0 0 0 0 0 0 0 0 0 0 0 0 0 0 0 0 0 0 0 0 0 0 0 0 0 0 0 0 0 0 0 0 0 0 0 0 0 0 0 31 0 32 0 0 
		63 0 0 0 0 0 0 33 0 0 0 0 0 0 0 0 0 0 0 25 0 0 0 25 38 23 0 0 0 0 0 0 0 0 0 30 32 0 0 0 0 0 35 0 20 20 24 0 0 0 0 0 0 0 0 0 0 0 0 0 0 0 0 0 0 25 0 0 0 0 0 0 0 0 0 0 0 0 0 0 0 0 0 0 0 
		64 0 0 0 0 0 27 0 0 22 0 0 0 0 0 0 0 0 0 0 0 0 0 0 0 0 0 0 0 0 0 0 0 27 0 0 0 0 0 0 29 0 0 37 0 0 0 0 0 0 30 0 0 0 0 0 0 0 0 0 0 0 0 0 25 0 21 0 0 0 0 0 0 0 0 0 0 0 0 0 0 0 0 30 0 
		65 0 0 0 0 0 0 0 0 0 35 0 0 0 0 0 0 0 0 0 0 0 0 0 0 0 33 0 0 0 0 0 0 0 0 0 0 0 0 0 0 0 37 0 0 0 0 25 0 0 0 0 0 0 0 0 28 0 0 0 0 0 0 0 0 21 0 0 0 0 20 0 0 38 0 0 0 0 40 0 0 28 26 0 0 
		66 0 0 0 0 0 0 0 0 0 0 26 0 0 0 0 0 0 31 0 0 0 0 0 0 0 0 0 0 24 0 0 0 0 0 0 0 0 0 0 40 0 0 0 36 0 35 0 0 0 0 0 0 0 0 25 20 0 0 0 0 0 0 0 0 0 0 0 0 37 0 0 0 38 0 0 0 0 0 0 0 0 0 0 26 
		67 0 0 0 0 0 0 0 0 0 0 0 0 0 0 0 0 0 0 0 0 32 0 0 0 0 21 40 0 0 0 0 0 0 0 0 0 0 0 0 0 0 0 0 0 0 0 0 0 0 0 0 0 0 0 0 25 0 0 0 29 0 22 0 0 0 0 0 0 0 0 0 0 0 0 0 0 0 0 0 0 36 38 0 0 
		68 0 0 0 0 33 0 0 0 0 0 0 0 0 0 0 0 0 0 0 33 0 0 34 0 0 0 0 0 0 0 0 0 0 0 0 0 0 0 0 0 0 0 35 0 39 0 0 39 0 0 26 0 0 0 0 0 39 0 0 30 0 0 0 0 0 0 37 0 0 0 0 0 25 0 0 0 0 0 0 0 0 29 0 29 
		69 0 0 0 0 24 0 0 22 0 0 0 0 0 0 0 0 0 0 0 0 0 0 0 0 0 0 0 0 0 30 0 0 0 0 0 0 0 0 0 0 0 0 0 0 0 0 0 20 0 0 0 29 0 0 0 0 0 39 0 37 0 0 0 0 0 20 0 0 0 0 0 0 0 0 0 0 0 0 23 0 0 36 0 0 
		70 26 0 0 0 0 0 0 37 22 0 35 0 0 0 0 38 0 29 0 0 0 34 0 38 0 0 0 0 0 0 0 0 26 0 32 0 0 0 0 0 0 0 0 0 33 0 22 0 0 0 0 0 0 0 0 29 0 0 0 0 0 0 0 0 0 0 0 0 0 0 0 0 38 0 0 0 0 0 0 0 33 0 35 0 
		71 29 0 0 0 0 26 0 0 0 0 25 0 0 22 0 0 0 38 0 23 0 0 0 33 0 31 0 0 0 0 0 0 0 0 0 0 0 0 0 0 0 0 0 0 25 0 0 39 0 0 0 0 0 0 0 0 0 0 0 0 29 0 0 0 0 0 0 0 0 0 0 0 20 0 0 0 0 0 0 0 0 35 0 0 
		72 0 0 0 0 0 0 0 0 0 0 0 0 0 0 0 0 0 32 0 0 0 0 0 23 37 0 0 0 0 0 0 0 0 0 0 0 0 40 0 0 0 0 0 0 0 0 0 0 0 0 0 0 0 0 0 0 0 36 0 32 0 0 0 0 0 38 38 0 25 0 38 20 0 0 40 0 0 0 31 0 25 22 0 32 
		73 0 0 0 0 20 0 0 0 0 0 0 32 24 0 0 0 0 0 0 0 0 0 0 0 0 0 0 0 0 36 0 0 0 0 26 0 0 0 38 0 36 0 0 0 0 0 0 0 0 0 37 0 0 0 0 0 0 0 0 0 0 0 0 0 0 0 0 0 0 0 0 0 0 0 0 0 0 0 0 25 0 0 0 0 
		74 0 0 24 0 0 0 0 0 0 21 36 31 0 20 0 0 0 0 0 0 0 0 0 0 0 0 0 0 0 0 0 0 0 0 0 0 0 0 0 0 0 0 0 0 0 0 39 0 0 0 0 0 0 0 0 39 0 24 0 20 0 0 0 0 0 0 0 0 0 0 0 0 40 0 0 0 0 0 0 38 0 39 0 0 
		75 35 0 0 0 0 31 0 23 0 30 0 0 0 0 0 36 0 0 0 0 0 0 23 0 0 32 0 0 0 33 0 0 0 38 0 0 23 37 0 0 0 0 0 0 0 0 0 0 0 0 0 0 0 0 0 0 0 36 0 0 0 0 0 0 0 0 0 0 0 0 0 0 0 0 0 0 0 0 0 0 0 0 0 0 
		76 0 33 0 0 0 0 0 0 0 0 22 0 0 0 0 0 0 30 0 0 0 0 0 0 0 0 0 0 0 0 0 0 0 0 0 40 0 0 0 0 0 0 0 0 0 0 0 0 0 0 25 0 0 0 0 0 0 0 0 0 0 0 0 0 0 0 0 0 0 0 0 0 0 0 0 0 0 0 29 34 0 0 0 0 
		77 0 0 0 0 0 0 0 0 0 0 0 33 0 0 0 0 0 0 0 0 27 0 0 0 0 0 0 0 0 0 0 0 0 34 0 0 0 0 0 0 0 0 0 0 0 0 31 0 34 37 0 0 0 0 0 0 0 0 0 0 0 0 0 0 0 40 0 0 0 0 0 0 0 0 0 0 0 0 0 0 0 0 0 0 
		78 0 37 0 0 36 0 0 0 0 0 0 35 0 0 0 0 0 0 0 29 0 0 0 0 0 0 0 33 0 0 0 0 0 0 27 0 0 0 0 0 0 0 0 0 0 0 0 0 0 0 39 25 0 24 0 0 0 0 0 0 0 0 0 0 0 0 0 0 0 23 0 0 31 0 0 0 29 0 0 0 0 0 0 27 
		79 0 0 0 0 0 0 0 0 0 0 0 0 0 34 0 0 0 0 0 27 0 0 0 0 0 0 0 0 30 21 0 0 0 0 0 0 0 0 0 0 0 0 0 0 0 0 0 0 0 0 32 22 0 0 0 0 0 0 0 0 0 0 31 0 0 0 0 0 0 0 0 0 0 25 38 0 34 0 0 0 23 0 0 0 
		80 0 0 0 0 0 0 0 0 0 0 25 0 0 0 0 0 20 0 0 0 0 0 0 0 31 0 0 0 0 0 0 0 0 0 0 0 0 0 0 0 0 0 0 25 0 0 0 0 0 0 0 0 39 0 0 29 0 0 0 0 0 0 0 0 0 28 0 36 0 0 33 0 25 0 0 0 0 0 0 23 0 0 0 26 
		81 0 0 0 38 0 0 0 0 0 0 0 0 0 38 0 0 0 0 0 0 0 0 0 0 0 35 35 0 23 0 0 0 0 0 0 0 0 0 0 0 0 0 0 0 0 0 21 0 0 0 0 31 35 22 0 34 0 0 0 0 0 0 32 0 0 26 0 38 29 36 0 35 22 0 39 0 0 0 0 0 0 0 0 0 
		82 0 0 0 0 0 0 0 0 0 0 0 0 0 0 0 0 0 0 26 0 0 0 0 0 31 0 0 0 0 25 0 0 0 0 0 0 0 0 0 0 0 0 0 0 0 0 0 0 0 0 0 0 0 0 0 0 0 0 0 0 0 0 0 0 30 0 0 0 0 0 35 0 0 0 0 0 0 0 0 0 0 0 0 0 
		83 0 0 0 0 35 0 0 0 0 0 0 0 0 25 0 0 0 0 0 0 0 0 0 0 0 0 0 0 0 0 27 0 0 37 0 0 0 0 0 0 0 0 0 22 0 0 0 32 0 0 0 0 36 0 0 0 0 0 24 20 0 0 0 0 0 0 26 0 29 0 0 0 32 0 0 0 0 0 27 0 26 0 0 0 
;
